c graph colorability of graph:
c .
c
c Generated with `cnfgen`
c (C) 2012-2019 Massimo Lauria <massimo.lauria@uniroma1.it>
c https://massimolauria.net/cnfgen
c
c COMMAND LINE: cnfgen --seed 1 -o ./kcolor/kcolor.grid9.s1.k3.cnf kcolor --grid 9 9 --savegraph ./kcolor/kcolor.grid9.s1.graph --graphformat dot 3
c
p cnf 243 756
1 2 3 0
-1 -2 0
-1 -3 0
-2 -3 0
4 5 6 0
-4 -5 0
-4 -6 0
-5 -6 0
7 8 9 0
-7 -8 0
-7 -9 0
-8 -9 0
10 11 12 0
-10 -11 0
-10 -12 0
-11 -12 0
13 14 15 0
-13 -14 0
-13 -15 0
-14 -15 0
16 17 18 0
-16 -17 0
-16 -18 0
-17 -18 0
19 20 21 0
-19 -20 0
-19 -21 0
-20 -21 0
22 23 24 0
-22 -23 0
-22 -24 0
-23 -24 0
25 26 27 0
-25 -26 0
-25 -27 0
-26 -27 0
28 29 30 0
-28 -29 0
-28 -30 0
-29 -30 0
31 32 33 0
-31 -32 0
-31 -33 0
-32 -33 0
34 35 36 0
-34 -35 0
-34 -36 0
-35 -36 0
37 38 39 0
-37 -38 0
-37 -39 0
-38 -39 0
40 41 42 0
-40 -41 0
-40 -42 0
-41 -42 0
43 44 45 0
-43 -44 0
-43 -45 0
-44 -45 0
46 47 48 0
-46 -47 0
-46 -48 0
-47 -48 0
49 50 51 0
-49 -50 0
-49 -51 0
-50 -51 0
52 53 54 0
-52 -53 0
-52 -54 0
-53 -54 0
55 56 57 0
-55 -56 0
-55 -57 0
-56 -57 0
58 59 60 0
-58 -59 0
-58 -60 0
-59 -60 0
61 62 63 0
-61 -62 0
-61 -63 0
-62 -63 0
64 65 66 0
-64 -65 0
-64 -66 0
-65 -66 0
67 68 69 0
-67 -68 0
-67 -69 0
-68 -69 0
70 71 72 0
-70 -71 0
-70 -72 0
-71 -72 0
73 74 75 0
-73 -74 0
-73 -75 0
-74 -75 0
76 77 78 0
-76 -77 0
-76 -78 0
-77 -78 0
79 80 81 0
-79 -80 0
-79 -81 0
-80 -81 0
82 83 84 0
-82 -83 0
-82 -84 0
-83 -84 0
85 86 87 0
-85 -86 0
-85 -87 0
-86 -87 0
88 89 90 0
-88 -89 0
-88 -90 0
-89 -90 0
91 92 93 0
-91 -92 0
-91 -93 0
-92 -93 0
94 95 96 0
-94 -95 0
-94 -96 0
-95 -96 0
97 98 99 0
-97 -98 0
-97 -99 0
-98 -99 0
100 101 102 0
-100 -101 0
-100 -102 0
-101 -102 0
103 104 105 0
-103 -104 0
-103 -105 0
-104 -105 0
106 107 108 0
-106 -107 0
-106 -108 0
-107 -108 0
109 110 111 0
-109 -110 0
-109 -111 0
-110 -111 0
112 113 114 0
-112 -113 0
-112 -114 0
-113 -114 0
115 116 117 0
-115 -116 0
-115 -117 0
-116 -117 0
118 119 120 0
-118 -119 0
-118 -120 0
-119 -120 0
121 122 123 0
-121 -122 0
-121 -123 0
-122 -123 0
124 125 126 0
-124 -125 0
-124 -126 0
-125 -126 0
127 128 129 0
-127 -128 0
-127 -129 0
-128 -129 0
130 131 132 0
-130 -131 0
-130 -132 0
-131 -132 0
133 134 135 0
-133 -134 0
-133 -135 0
-134 -135 0
136 137 138 0
-136 -137 0
-136 -138 0
-137 -138 0
139 140 141 0
-139 -140 0
-139 -141 0
-140 -141 0
142 143 144 0
-142 -143 0
-142 -144 0
-143 -144 0
145 146 147 0
-145 -146 0
-145 -147 0
-146 -147 0
148 149 150 0
-148 -149 0
-148 -150 0
-149 -150 0
151 152 153 0
-151 -152 0
-151 -153 0
-152 -153 0
154 155 156 0
-154 -155 0
-154 -156 0
-155 -156 0
157 158 159 0
-157 -158 0
-157 -159 0
-158 -159 0
160 161 162 0
-160 -161 0
-160 -162 0
-161 -162 0
163 164 165 0
-163 -164 0
-163 -165 0
-164 -165 0
166 167 168 0
-166 -167 0
-166 -168 0
-167 -168 0
169 170 171 0
-169 -170 0
-169 -171 0
-170 -171 0
172 173 174 0
-172 -173 0
-172 -174 0
-173 -174 0
175 176 177 0
-175 -176 0
-175 -177 0
-176 -177 0
178 179 180 0
-178 -179 0
-178 -180 0
-179 -180 0
181 182 183 0
-181 -182 0
-181 -183 0
-182 -183 0
184 185 186 0
-184 -185 0
-184 -186 0
-185 -186 0
187 188 189 0
-187 -188 0
-187 -189 0
-188 -189 0
190 191 192 0
-190 -191 0
-190 -192 0
-191 -192 0
193 194 195 0
-193 -194 0
-193 -195 0
-194 -195 0
196 197 198 0
-196 -197 0
-196 -198 0
-197 -198 0
199 200 201 0
-199 -200 0
-199 -201 0
-200 -201 0
202 203 204 0
-202 -203 0
-202 -204 0
-203 -204 0
205 206 207 0
-205 -206 0
-205 -207 0
-206 -207 0
208 209 210 0
-208 -209 0
-208 -210 0
-209 -210 0
211 212 213 0
-211 -212 0
-211 -213 0
-212 -213 0
214 215 216 0
-214 -215 0
-214 -216 0
-215 -216 0
217 218 219 0
-217 -218 0
-217 -219 0
-218 -219 0
220 221 222 0
-220 -221 0
-220 -222 0
-221 -222 0
223 224 225 0
-223 -224 0
-223 -225 0
-224 -225 0
226 227 228 0
-226 -227 0
-226 -228 0
-227 -228 0
229 230 231 0
-229 -230 0
-229 -231 0
-230 -231 0
232 233 234 0
-232 -233 0
-232 -234 0
-233 -234 0
235 236 237 0
-235 -236 0
-235 -237 0
-236 -237 0
238 239 240 0
-238 -239 0
-238 -240 0
-239 -240 0
241 242 243 0
-241 -242 0
-241 -243 0
-242 -243 0
-1 -4 0
-2 -5 0
-3 -6 0
-1 -28 0
-2 -29 0
-3 -30 0
-4 -7 0
-5 -8 0
-6 -9 0
-4 -31 0
-5 -32 0
-6 -33 0
-7 -10 0
-8 -11 0
-9 -12 0
-7 -34 0
-8 -35 0
-9 -36 0
-10 -13 0
-11 -14 0
-12 -15 0
-10 -37 0
-11 -38 0
-12 -39 0
-13 -16 0
-14 -17 0
-15 -18 0
-13 -40 0
-14 -41 0
-15 -42 0
-16 -19 0
-17 -20 0
-18 -21 0
-16 -43 0
-17 -44 0
-18 -45 0
-19 -22 0
-20 -23 0
-21 -24 0
-19 -46 0
-20 -47 0
-21 -48 0
-22 -25 0
-23 -26 0
-24 -27 0
-22 -49 0
-23 -50 0
-24 -51 0
-25 -52 0
-26 -53 0
-27 -54 0
-28 -31 0
-29 -32 0
-30 -33 0
-28 -55 0
-29 -56 0
-30 -57 0
-31 -34 0
-32 -35 0
-33 -36 0
-31 -58 0
-32 -59 0
-33 -60 0
-34 -37 0
-35 -38 0
-36 -39 0
-34 -61 0
-35 -62 0
-36 -63 0
-37 -40 0
-38 -41 0
-39 -42 0
-37 -64 0
-38 -65 0
-39 -66 0
-40 -43 0
-41 -44 0
-42 -45 0
-40 -67 0
-41 -68 0
-42 -69 0
-43 -46 0
-44 -47 0
-45 -48 0
-43 -70 0
-44 -71 0
-45 -72 0
-46 -49 0
-47 -50 0
-48 -51 0
-46 -73 0
-47 -74 0
-48 -75 0
-49 -52 0
-50 -53 0
-51 -54 0
-49 -76 0
-50 -77 0
-51 -78 0
-52 -79 0
-53 -80 0
-54 -81 0
-55 -58 0
-56 -59 0
-57 -60 0
-55 -82 0
-56 -83 0
-57 -84 0
-58 -61 0
-59 -62 0
-60 -63 0
-58 -85 0
-59 -86 0
-60 -87 0
-61 -64 0
-62 -65 0
-63 -66 0
-61 -88 0
-62 -89 0
-63 -90 0
-64 -67 0
-65 -68 0
-66 -69 0
-64 -91 0
-65 -92 0
-66 -93 0
-67 -70 0
-68 -71 0
-69 -72 0
-67 -94 0
-68 -95 0
-69 -96 0
-70 -73 0
-71 -74 0
-72 -75 0
-70 -97 0
-71 -98 0
-72 -99 0
-73 -76 0
-74 -77 0
-75 -78 0
-73 -100 0
-74 -101 0
-75 -102 0
-76 -79 0
-77 -80 0
-78 -81 0
-76 -103 0
-77 -104 0
-78 -105 0
-79 -106 0
-80 -107 0
-81 -108 0
-82 -85 0
-83 -86 0
-84 -87 0
-82 -109 0
-83 -110 0
-84 -111 0
-85 -88 0
-86 -89 0
-87 -90 0
-85 -112 0
-86 -113 0
-87 -114 0
-88 -91 0
-89 -92 0
-90 -93 0
-88 -115 0
-89 -116 0
-90 -117 0
-91 -94 0
-92 -95 0
-93 -96 0
-91 -118 0
-92 -119 0
-93 -120 0
-94 -97 0
-95 -98 0
-96 -99 0
-94 -121 0
-95 -122 0
-96 -123 0
-97 -100 0
-98 -101 0
-99 -102 0
-97 -124 0
-98 -125 0
-99 -126 0
-100 -103 0
-101 -104 0
-102 -105 0
-100 -127 0
-101 -128 0
-102 -129 0
-103 -106 0
-104 -107 0
-105 -108 0
-103 -130 0
-104 -131 0
-105 -132 0
-106 -133 0
-107 -134 0
-108 -135 0
-109 -112 0
-110 -113 0
-111 -114 0
-109 -136 0
-110 -137 0
-111 -138 0
-112 -115 0
-113 -116 0
-114 -117 0
-112 -139 0
-113 -140 0
-114 -141 0
-115 -118 0
-116 -119 0
-117 -120 0
-115 -142 0
-116 -143 0
-117 -144 0
-118 -121 0
-119 -122 0
-120 -123 0
-118 -145 0
-119 -146 0
-120 -147 0
-121 -124 0
-122 -125 0
-123 -126 0
-121 -148 0
-122 -149 0
-123 -150 0
-124 -127 0
-125 -128 0
-126 -129 0
-124 -151 0
-125 -152 0
-126 -153 0
-127 -130 0
-128 -131 0
-129 -132 0
-127 -154 0
-128 -155 0
-129 -156 0
-130 -133 0
-131 -134 0
-132 -135 0
-130 -157 0
-131 -158 0
-132 -159 0
-133 -160 0
-134 -161 0
-135 -162 0
-136 -139 0
-137 -140 0
-138 -141 0
-136 -163 0
-137 -164 0
-138 -165 0
-139 -142 0
-140 -143 0
-141 -144 0
-139 -166 0
-140 -167 0
-141 -168 0
-142 -145 0
-143 -146 0
-144 -147 0
-142 -169 0
-143 -170 0
-144 -171 0
-145 -148 0
-146 -149 0
-147 -150 0
-145 -172 0
-146 -173 0
-147 -174 0
-148 -151 0
-149 -152 0
-150 -153 0
-148 -175 0
-149 -176 0
-150 -177 0
-151 -154 0
-152 -155 0
-153 -156 0
-151 -178 0
-152 -179 0
-153 -180 0
-154 -157 0
-155 -158 0
-156 -159 0
-154 -181 0
-155 -182 0
-156 -183 0
-157 -160 0
-158 -161 0
-159 -162 0
-157 -184 0
-158 -185 0
-159 -186 0
-160 -187 0
-161 -188 0
-162 -189 0
-163 -166 0
-164 -167 0
-165 -168 0
-163 -190 0
-164 -191 0
-165 -192 0
-166 -169 0
-167 -170 0
-168 -171 0
-166 -193 0
-167 -194 0
-168 -195 0
-169 -172 0
-170 -173 0
-171 -174 0
-169 -196 0
-170 -197 0
-171 -198 0
-172 -175 0
-173 -176 0
-174 -177 0
-172 -199 0
-173 -200 0
-174 -201 0
-175 -178 0
-176 -179 0
-177 -180 0
-175 -202 0
-176 -203 0
-177 -204 0
-178 -181 0
-179 -182 0
-180 -183 0
-178 -205 0
-179 -206 0
-180 -207 0
-181 -184 0
-182 -185 0
-183 -186 0
-181 -208 0
-182 -209 0
-183 -210 0
-184 -187 0
-185 -188 0
-186 -189 0
-184 -211 0
-185 -212 0
-186 -213 0
-187 -214 0
-188 -215 0
-189 -216 0
-190 -193 0
-191 -194 0
-192 -195 0
-190 -217 0
-191 -218 0
-192 -219 0
-193 -196 0
-194 -197 0
-195 -198 0
-193 -220 0
-194 -221 0
-195 -222 0
-196 -199 0
-197 -200 0
-198 -201 0
-196 -223 0
-197 -224 0
-198 -225 0
-199 -202 0
-200 -203 0
-201 -204 0
-199 -226 0
-200 -227 0
-201 -228 0
-202 -205 0
-203 -206 0
-204 -207 0
-202 -229 0
-203 -230 0
-204 -231 0
-205 -208 0
-206 -209 0
-207 -210 0
-205 -232 0
-206 -233 0
-207 -234 0
-208 -211 0
-209 -212 0
-210 -213 0
-208 -235 0
-209 -236 0
-210 -237 0
-211 -214 0
-212 -215 0
-213 -216 0
-211 -238 0
-212 -239 0
-213 -240 0
-214 -241 0
-215 -242 0
-216 -243 0
-217 -220 0
-218 -221 0
-219 -222 0
-220 -223 0
-221 -224 0
-222 -225 0
-223 -226 0
-224 -227 0
-225 -228 0
-226 -229 0
-227 -230 0
-228 -231 0
-229 -232 0
-230 -233 0
-231 -234 0
-232 -235 0
-233 -236 0
-234 -237 0
-235 -238 0
-236 -239 0
-237 -240 0
-238 -241 0
-239 -242 0
-240 -243 0
